n_res = 2;
rcap = [12, 16];
rtype = [1, 1];
n_tasks = 14;
modes = [ {1, 2, 3}, {4, 5, 6}, {7, 8, 9}, {10, 11, 12}, {13, 14, 15}, {16, 17, 18}, {19, 20, 21}, {22, 23, 24}, {25, 26, 27}, {28, 29, 30}, {31, 32, 33}, {34, 35, 36}, {37, 38, 39}, {40, 41, 42} ];
succ = [ {5, 7}, {11, 12}, {4, 7, 12}, {9, 10, 13}, {6, 8, 9}, {10, 12, 13}, {14}, {10, 11, 13}, {11}, {14}, {14}, {}, {}, {} ];
n_opt = 42;
dur = [6, 7, 9, 6, 7, 9, 3, 5, 9, 4, 5, 9, 1, 5, 7, 3, 7, 8, 2, 4, 5, 1, 9, 9, 1, 4, 4, 2, 3, 10, 1, 1, 6, 3, 7, 9, 7, 10, 10, 2, 3, 3];
rreq = [|  7,  6,  0,  7,  0,  5,  6,  0,  5,  6,  0,  0,  0,  8,  0, 10,  0,  6,  8,  0,  4,  6,  5,  0,  0,  7,  0,  0,  4,  2,  0,  5,  0,  4,  0,  0,  0,  0,  3,  7,  0,  6
        |  0,  0,  1,  0,  5,  0,  0,  7,  0,  0,  9,  8,  4,  0,  1,  0,  6,  0,  0, 10,  0,  0,  0,  7,  8,  0,  6,  3,  0,  0,  4,  0,  3,  0,  8,  4,  8,  3,  0,  0,  8,  0 |];
